c NeuroCodeBench 2.0 CNF formula with verdict Unsat
p cnf 30 39
1 -20 -8 17 6 -19 21 0
-1 17 3 26 -10 0
1 20 15 6 -8 -26 0
1 20 15 -6 24 -14 -11 0
1 -20 8 22 12 0
1 -20 -8 17 6 19 14 0
1 20 15 6 -8 26 -14 0
-1 17 3 -26 0
-1 17 -3 0
-1 -17 -18 -10 16 -25 0
1 20 -15 14 0
1 20 15 -6 -24 -18 -14 -7 0
1 -20 -8 -17 0
1 -20 -8 17 6 19 -14 0
1 20 -15 -14 28 0
-1 -17 18 7 0
1 20 -15 -14 -28 8 0
1 -20 8 -22 0
-1 17 3 26 10 0
1 20 15 -6 24 -14 11 -9 -7 5 0
-1 -17 -18 -10 -16 0
1 20 15 -6 -24 -18 -14 7 0
1 20 15 -6 24 14 -3 0
1 20 15 -6 24 14 3 0
1 -20 -8 17 -6 0
-1 -17 -18 10 0
-1 -17 -18 -10 16 25 0
1 20 -15 -14 -28 -8 -3 0
1 20 -15 -14 -28 -8 3 0
1 -20 -8 17 6 -19 -21 0
1 20 15 -6 24 -14 11 -9 -7 -5 0
1 20 15 -6 -24 -18 14 0
-1 -17 18 -7 0
1 20 15 -6 -24 18 0
1 20 15 6 -8 26 14 0
1 -20 8 22 -12 0
1 20 15 -6 24 -14 11 -9 7 0
1 20 15 6 8 0
1 20 15 -6 24 -14 11 9 0
